networks/zoo_56_454/zoo_56_454.txt
Number of groups: 27
Flow 3: {1 2} {2 4} {4 32} 
Flow 6: {25 9} {9 10} {10 38} 
Flow 15: {1 7} {7 3} {3 21} {21 23} {23 51} 
Flow 28: {12 11} {11 39} 
Flow 33: {11 18} {18 46} 
Flow 67: {2 1} {1 29} 
Flow 92: {5 15} {15 25} {25 23} {23 17} {17 45} 
Flow 97: {6 15} {15 21} {21 3} {3 7} {7 1} 
Flow 115: {7 2} {2 30} 
Flow 147: {8 17} {17 23} {23 21} {21 49} 
Flow 190: {20 19} {19 28} {28 56} 
Flow 201: {21 16} {16 20} {20 48} 
Flow 243: {9 24} {24 17} {17 8} {8 22} {22 50} 
Flow 277: {17 24} {24 9} 
Flow 296: {18 11} {11 12} {12 13} {13 41} 
Flow 302: {13 14} {14 10} {10 9} {9 25} {25 53} 
Flow 303: {3 4} {4 26} {26 27} {27 55} 
Flow 315: {19 20} {20 16} {16 44} 
Flow 321: {25 24} {24 52} 
Flow 323: {28 27} {27 26} {26 54} 
Flow 328: {16 3} {3 31} 
Flow 375: {22 16} {16 21} {21 15} {15 43} 
Flow 389: {24 25} {25 15} {15 5} {5 33} 
Flow 416: {10 14} {14 13} {13 12} {12 40} 
Flow 439: {26 4} {4 2} {2 7} {7 35} 
Flow 440: {4 3} {3 16} {16 22} {22 8} {8 36} 
Flow 446: {27 28} {28 19} {19 47} 
Time taken running everything: 47 seconds
