networks/zoo_56_454/zoo_56_454.sol
<?xml version = "1.0" encoding="UTF-8" standalone="yes"?>
<CPLEXSolution version="1.2">
 <header
   problemName="networks/zoo_56_454/zoo_56_454.lp"
   solutionName="incumbent"
   solutionIndex="-1"
   objectiveValue="27"
   solutionTypeValue="3"
   solutionTypeString="primal"
   solutionStatusValue="101"
   solutionStatusString="integer optimal solution"
   solutionMethodString="mip"
   primalFeasible="1"
   dualFeasible="1"
   MIPNodes="2428"
   MIPIterations="366594"
   writeLevel="3"/>
 <quality
   epInt="1.0000000000000001e-05"
   epRHS="9.9999999999999995e-07"
   maxIntInfeas="0"
   maxPrimalInfeas="1.000000082740371e-09"
   maxX="4.0000000010000001"
   maxSlack="10.000000001"/>
 <variables>
  <variable name="Y(3,4)" index="109" value="1"/>
  <variable name="Y(6,10)" index="274" value="1"/>
  <variable name="Y(15,23)" index="764" value="1"/>
  <variable name="Y(28,11)" index="1441" value="1"/>
  <variable name="Y(33,18)" index="1713" value="1"/>
  <variable name="Y(67,1)" index="3498" value="1"/>
  <variable name="Y(92,17)" index="4839" value="1"/>
  <variable name="Y(97,7)" index="5094" value="1"/>
  <variable name="Y(115,2)" index="6043" value="1"/>
  <variable name="Y(147,21)" index="7758" value="1"/>
  <variable name="Y(190,28)" index="10044" value="1"/>
  <variable name="Y(201,20)" index="10619" value="1"/>
  <variable name="Y(243,22)" index="12847" value="1"/>
  <variable name="Y(277,24)" index="14651" value="1"/>
  <variable name="Y(296,13)" index="15647" value="1"/>
  <variable name="Y(302,25)" index="15977" value="1"/>
  <variable name="Y(303,27)" index="16032" value="1"/>
  <variable name="Y(315,16)" index="16657" value="1"/>
  <variable name="Y(321,24)" index="16983" value="1"/>
  <variable name="Y(323,26)" index="17091" value="1"/>
  <variable name="Y(328,3)" index="17333" value="1"/>
  <variable name="Y(375,15)" index="19836" value="1"/>
  <variable name="Y(389,5)" index="20568" value="1"/>
  <variable name="Y(416,12)" index="22006" value="1"/>
  <variable name="Y(439,7)" index="23220" value="1"/>
  <variable name="Y(440,8)" index="23274" value="1"/>
  <variable name="Y(446,19)" index="23603" value="1"/>
  <variable name="X(1,2,3)" index="24064" value="1"/>
  <variable name="X(1,7,15)" index="24530" value="1"/>
  <variable name="X(1,29,67)" index="25036" value="1"/>
  <variable name="X(2,1,67)" index="25490" value="1"/>
  <variable name="X(2,4,3)" index="25880" value="1"/>
  <variable name="X(2,7,439)" index="26770" value="1"/>
  <variable name="X(2,30,115)" index="26900" value="1"/>
  <variable name="X(3,4,303)" index="27542" value="1"/>
  <variable name="X(3,7,97)" index="27790" value="1"/>
  <variable name="X(3,16,440)" index="28587" value="1"/>
  <variable name="X(3,21,15)" index="28616" value="1"/>
  <variable name="X(3,31,328)" index="29383" value="1"/>
  <variable name="X(4,2,439)" index="29948" value="1"/>
  <variable name="X(4,3,440)" index="30403" value="1"/>
  <variable name="X(4,26,303)" index="30720" value="1"/>
  <variable name="X(4,32,3)" index="30874" value="1"/>
  <variable name="X(5,15,92)" index="31417" value="1"/>
  <variable name="X(5,33,389)" index="32168" value="1"/>
  <variable name="X(6,15,97)" index="32330" value="1"/>
  <variable name="X(7,1,97)" index="32784" value="1"/>
  <variable name="X(7,2,115)" index="33256" value="1"/>
  <variable name="X(7,3,15)" index="33610" value="1"/>
  <variable name="X(7,35,439)" index="34488" value="1"/>
  <variable name="X(8,17,147)" index="34650" value="1"/>
  <variable name="X(8,22,243)" index="35200" value="1"/>
  <variable name="X(8,36,440)" index="35851" value="1"/>
  <variable name="X(9,10,6)" index="35871" value="1"/>
  <variable name="X(9,24,243)" index="36562" value="1"/>
  <variable name="X(9,25,302)" index="37075" value="1"/>
  <variable name="X(10,9,302)" index="37529" value="1"/>
  <variable name="X(10,14,416)" index="38097" value="1"/>
  <variable name="X(10,38,6)" index="38141" value="1"/>
  <variable name="X(11,12,296)" index="38885" value="1"/>
  <variable name="X(11,18,33)" index="39076" value="1"/>
  <variable name="X(11,39,28)" index="39525" value="1"/>
  <variable name="X(12,11,28)" index="39979" value="1"/>
  <variable name="X(12,13,296)" index="40701" value="1"/>
  <variable name="X(12,40,416)" index="41275" value="1"/>
  <variable name="X(13,12,416)" index="41729" value="1"/>
  <variable name="X(13,14,302)" index="42069" value="1"/>
  <variable name="X(13,41,296)" index="42517" value="1"/>
  <variable name="X(14,10,302)" index="42977" value="1"/>
  <variable name="X(14,13,416)" index="43545" value="1"/>
  <variable name="X(15,5,389)" index="43972" value="1"/>
  <variable name="X(15,21,97)" index="44134" value="1"/>
  <variable name="X(15,25,92)" index="44583" value="1"/>
  <variable name="X(15,43,375)" index="45320" value="1"/>
  <variable name="X(16,3,328)" index="45727" value="1"/>
  <variable name="X(16,20,201)" index="46054" value="1"/>
  <variable name="X(16,21,375)" index="46682" value="1"/>
  <variable name="X(16,22,440)" index="47201" value="1"/>
  <variable name="X(16,44,315)" index="47530" value="1"/>
  <variable name="X(17,8,243)" index="47912" value="1"/>
  <variable name="X(17,23,147)" index="48270" value="1"/>
  <variable name="X(17,24,277)" index="48854" value="1"/>
  <variable name="X(17,45,92)" index="49123" value="1"/>
  <variable name="X(18,11,296)" index="49781" value="1"/>
  <variable name="X(18,46,33)" index="49972" value="1"/>
  <variable name="X(19,20,315)" index="50708" value="1"/>
  <variable name="X(19,28,190)" index="51037" value="1"/>
  <variable name="X(19,47,446)" index="51747" value="1"/>
  <variable name="X(20,16,315)" index="52070" value="1"/>
  <variable name="X(20,19,190)" index="52399" value="1"/>
  <variable name="X(20,48,201)" index="52864" value="1"/>
  <variable name="X(21,3,97)" index="53214" value="1"/>
  <variable name="X(21,15,375)" index="53946" value="1"/>
  <variable name="X(21,16,201)" index="54226" value="1"/>
  <variable name="X(21,23,15)" index="54494" value="1"/>
  <variable name="X(21,49,147)" index="55080" value="1"/>
  <variable name="X(22,8,440)" index="55827" value="1"/>
  <variable name="X(22,16,375)" index="56216" value="1"/>
  <variable name="X(22,50,243)" index="56538" value="1"/>
  <variable name="X(23,17,92)" index="56841" value="1"/>
  <variable name="X(23,21,147)" index="57350" value="1"/>
  <variable name="X(23,51,15)" index="57672" value="1"/>
  <variable name="X(24,9,277)" index="58388" value="1"/>
  <variable name="X(24,17,243)" index="58808" value="1"/>
  <variable name="X(24,25,389)" index="59408" value="1"/>
  <variable name="X(24,52,321)" index="59794" value="1"/>
  <variable name="X(25,9,6)" index="59933" value="1"/>
  <variable name="X(25,15,389)" index="60770" value="1"/>
  <variable name="X(25,23,92)" index="60927" value="1"/>
  <variable name="X(25,24,321)" index="61610" value="1"/>
  <variable name="X(25,53,302)" index="62045" value="1"/>
  <variable name="X(26,4,439)" index="62636" value="1"/>
  <variable name="X(26,27,303)" index="62954" value="1"/>
  <variable name="X(26,54,323)" index="63428" value="1"/>
  <variable name="X(27,26,323)" index="63882" value="1"/>
  <variable name="X(27,28,446)" index="64459" value="1"/>
  <variable name="X(27,55,303)" index="64770" value="1"/>
  <variable name="X(28,19,446)" index="65367" value="1"/>
  <variable name="X(28,27,323)" index="65698" value="1"/>
  <variable name="X(28,56,190)" index="66019" value="1"/>
  <variable name="C(3,2)" index="66290" value="1"/>
  <variable name="C(3,4)" index="66291" value="2"/>
  <variable name="C(6,9)" index="66306" value="1"/>
  <variable name="C(6,10)" index="66307" value="2"/>
  <variable name="C(15,7)" index="66354" value="1"/>
  <variable name="C(15,3)" index="66355" value="2"/>
  <variable name="C(15,21)" index="66356" value="3"/>
  <variable name="C(15,23)" index="66357" value="4"/>
  <variable name="C(28,11)" index="66426" value="1"/>
  <variable name="C(33,18)" index="66464" value="1"/>
  <variable name="C(67,1)" index="66615" value="1"/>
  <variable name="C(92,15)" index="66720" value="1"/>
  <variable name="C(92,25)" index="66721" value="2"/>
  <variable name="C(92,23)" index="66722" value="3"/>
  <variable name="C(92,17)" index="66723" value="4"/>
  <variable name="C(97,15)" index="66744" value="1"/>
  <variable name="C(97,21)" index="66745" value="2.0000000010000001"/>
  <variable name="C(97,3)" index="66746" value="3.0000000010000001"/>
  <variable name="C(97,7)" index="66747" value="4.0000000010000001"/>
  <variable name="C(115,2)" index="66830" value="1"/>
  <variable name="C(147,17)" index="66991" value="1"/>
  <variable name="C(147,23)" index="66992" value="2"/>
  <variable name="C(147,21)" index="66993" value="3"/>
  <variable name="C(190,19)" index="67224" value="1"/>
  <variable name="C(190,28)" index="67225" value="2"/>
  <variable name="C(201,16)" index="67330" value="1"/>
  <variable name="C(201,20)" index="67331" value="2"/>
  <variable name="C(243,24)" index="67680" value="1"/>
  <variable name="C(243,17)" index="67681" value="2"/>
  <variable name="C(243,8)" index="67682" value="3"/>
  <variable name="C(243,22)" index="67683" value="4"/>
  <variable name="C(277,24)" index="67901" value="1"/>
  <variable name="C(296,11)" index="68022" value="1"/>
  <variable name="C(296,12)" index="68023" value="2"/>
  <variable name="C(296,13)" index="68024" value="3"/>
  <variable name="C(302,14)" index="68081" value="1"/>
  <variable name="C(302,10)" index="68082" value="2"/>
  <variable name="C(302,9)" index="68083" value="3"/>
  <variable name="C(302,25)" index="68084" value="4"/>
  <variable name="C(303,4)" index="68096" value="1"/>
  <variable name="C(303,26)" index="68097" value="2"/>
  <variable name="C(303,27)" index="68098" value="3"/>
  <variable name="C(315,20)" index="68172" value="1"/>
  <variable name="C(315,16)" index="68173" value="2"/>
  <variable name="C(321,24)" index="68201" value="1"/>
  <variable name="C(323,27)" index="68210" value="1"/>
  <variable name="C(323,26)" index="68211" value="2"/>
  <variable name="C(328,3)" index="68229" value="1.0000000010000001"/>
  <variable name="C(375,16)" index="68428" value="1"/>
  <variable name="C(375,21)" index="68429" value="2"/>
  <variable name="C(375,15)" index="68430" value="3"/>
  <variable name="C(389,25)" index="68492" value="1"/>
  <variable name="C(389,15)" index="68493" value="2"/>
  <variable name="C(389,5)" index="68494" value="3"/>
  <variable name="C(416,14)" index="68624" value="1"/>
  <variable name="C(416,13)" index="68625" value="2"/>
  <variable name="C(416,12)" index="68626" value="3"/>
  <variable name="C(439,4)" index="68727" value="1"/>
  <variable name="C(439,2)" index="68728" value="2"/>
  <variable name="C(439,7)" index="68729" value="3"/>
  <variable name="C(440,3)" index="68733" value="1"/>
  <variable name="C(440,16)" index="68734" value="2"/>
  <variable name="C(440,22)" index="68735" value="3"/>
  <variable name="C(440,8)" index="68736" value="4"/>
  <variable name="C(446,28)" index="68776" value="1"/>
  <variable name="C(446,19)" index="68777" value="2"/>
 </variables>
</CPLEXSolution>
